
<<< setup


<<< generate

Version identifier: 12.10.0.0 | 2019-11-26 | 843d4de2ae
CPXPARAM_TimeLimit                               1200
Tried aggregator 2 times.
MIP Presolve eliminated 5177647 rows and 2944033 columns.
MIP Presolve modified 401700 coefficients.
Aggregator did 1344 substitutions.
Reduced MIP has 71659 rows, 73673 columns, and 449881 nonzeros.
Reduced MIP has 73623 binaries, 0 generals, 0 SOSs, and 0 indicators.
Presolve time = 5.94 sec. (3780.86 ticks)
Found incumbent of value 0.000000 after 8.88 sec. (4851.26 ticks)
Probing fixed 54 vars, tightened 0 bounds.
Probing time = 2.05 sec. (334.05 ticks)
Tried aggregator 1 time.
Detecting symmetries...
MIP Presolve eliminated 68 rows and 68 columns.
MIP Presolve modified 1402 coefficients.
Reduced MIP has 71591 rows, 73605 columns, and 449194 nonzeros.
Reduced MIP has 73555 binaries, 0 generals, 0 SOSs, and 0 indicators.
Presolve time = 0.84 sec. (452.20 ticks)
Probing time = 0.16 sec. (27.48 ticks)
Clique table members: 254291.
MIP emphasis: balance optimality and feasibility.
MIP search method: dynamic search.
Parallel mode: deterministic, using up to 4 threads.
Root relaxation solution time = 4.98 sec. (2921.86 ticks)

        Nodes                                         Cuts/
   Node  Left     Objective  IInf  Best Integer    Best Bound    ItCnt     Gap

*     0+    0                            0.0000   107738.0000              --- 
      0     0   107738.0000   903        0.0000   107738.0000    12008     --- 
      0     0   107738.0000   903        0.0000      Cuts: 30    26016     --- 
      0     0   107738.0000   903        0.0000     Cuts: 232    36883     --- 
      0     0   107738.0000   903        0.0000    Cuts: 6975    65870     --- 
*     0+    0                         3649.0000   107738.0000              --- 
Heuristic still looking.
Heuristic still looking.
      0     2   107738.0000   699     3649.0000   107738.0000    87675     --- 
Elapsed time = 481.16 sec. (289087.07 ticks, tree = 0.02 MB, solutions = 2)
      1     3   107738.0000   790     3649.0000   107738.0000   113083     --- 
      2     3   107738.0000   738     3649.0000   107738.0000   111254     --- 
      3     5   107738.0000   883     3649.0000   107738.0000   155493     --- 
      4     6   107738.0000   876     3649.0000   107738.0000   155978     --- 
      5     7   107738.0000   812     3649.0000   107738.0000   174726     --- 
      6     8   107738.0000   839     3649.0000   107738.0000   197658     --- 
      8     4   107738.0000   811     3649.0000   107738.0000   133904     --- 
      9    10   107738.0000   790     3649.0000   107738.0000   208140     --- 
     10     4   107738.0000   950     3649.0000   107738.0000   128401     --- 
     12    11   107738.0000   771     3649.0000   107738.0000   223837     --- 
Elapsed time = 679.06 sec. (373711.01 ticks, tree = 0.21 MB, solutions = 2)
     14     8   107738.0000   753     3649.0000   107738.0000   198207     --- 
     16     9   107738.0000   758     3649.0000   107738.0000   209173     --- 
     17    16   107738.0000   777     3649.0000   107738.0000   293871     --- 
     19    11   107738.0000   712     3649.0000   107738.0000   248837     --- 
     20    16   107738.0000   775     3649.0000   107738.0000   319280     --- 
     21    10   107738.0000   773     3649.0000   107738.0000   232560     --- 
     22    19   107738.0000   922     3649.0000   107738.0000   333259     --- 
     24    21   107738.0000   796     3649.0000   107738.0000   388333     --- 
     25    22   107738.0000  1126     3649.0000   107738.0000   393448     --- 
     29    26   107738.0000   904     3649.0000   107738.0000   450598     --- 
Elapsed time = 792.55 sec. (418367.56 ticks, tree = 2.54 MB, solutions = 2)
     31    25   107738.0000   977     3649.0000   107738.0000   431359     --- 
     33    29   107738.0000   816     3649.0000   107738.0000   452157     --- 
     35    26   107738.0000   943     3649.0000   107738.0000   433334     --- 
     39    27   107738.0000   859     3649.0000   107738.0000   433342     --- 
     40    33   107738.0000   966     3649.0000   107738.0000   455584     --- 
     42    27   107738.0000   946     3649.0000   107738.0000   465112     --- 
     45    28   107738.0000   947     3649.0000   107738.0000   434349     --- 
     48    33   107738.0000  1017     3649.0000   107738.0000   485527     --- 
     50    40   107738.0000   853     3649.0000   107738.0000   460659     --- 
     52    41   107738.0000   821     3649.0000   107738.0000   461820     --- 
Elapsed time = 841.33 sec. (431495.75 ticks, tree = 4.21 MB, solutions = 2)
     53    42   107738.0000   912     3649.0000   107738.0000   462924     --- 
     54    29   107738.0000  1226     3649.0000   107738.0000   474255     --- 
     57    30   107738.0000  1110     3649.0000   107738.0000   476792     --- 
     59    38   107738.0000  1168     3649.0000   107738.0000   527035     --- 
     61    42   107738.0000   806     3649.0000   107738.0000   541720     --- 
     63    41   107738.0000   999     3649.0000   107738.0000   531411     --- 
     65    43   107738.0000   978     3649.0000   107738.0000   533973     --- 
     67    45   107738.0000  1005     3649.0000   107738.0000   535387     --- 
     70    34   107738.0000  1035     3649.0000   107738.0000   486678     --- 
     72    44   107738.0000   988     3649.0000   107738.0000   542642     --- 
Elapsed time = 899.16 sec. (455740.71 ticks, tree = 4.07 MB, solutions = 2)
     73    45   107738.0000   941     3649.0000   107738.0000   543277     --- 
     74    46   107738.0000   905     3649.0000   107738.0000   543808     --- 
     75    47   107738.0000   886     3649.0000   107738.0000   544715     --- 
     76    48   107738.0000   806     3649.0000   107738.0000   545617     --- 
     77    49   107738.0000   868     3649.0000   107738.0000   546322     --- 
     81    51   107738.0000   898     3649.0000   107738.0000   546822     --- 
     83    53   107738.0000   854     3649.0000   107738.0000   547708     --- 
     85    55   107738.0000   809     3649.0000   107738.0000   548108     --- 
     86    56   107738.0000   775     3649.0000   107738.0000   548533     --- 
     87    57   107738.0000   792     3649.0000   107738.0000   548903     --- 
Elapsed time = 941.13 sec. (471034.81 ticks, tree = 4.49 MB, solutions = 2)
     89    59   107738.0000   794     3649.0000   107738.0000   549678     --- 
     91    61   107738.0000   794     3649.0000   107738.0000   550067     --- 
     92    62   107738.0000   813     3649.0000   107738.0000   550613     --- 
     96    66   107738.0000   827     3649.0000   107738.0000   551442     --- 
    100    68   107738.0000   773     3649.0000   107738.0000   551832     --- 
    102    47   107738.0000   829     3649.0000   107738.0000   546060     --- 
    104    48   107738.0000   755     3649.0000   107738.0000   546631     --- 
    107    49   107738.0000   741     3649.0000   107738.0000   547097     --- 
    110    52   107738.0000   840     3649.0000   107738.0000   547607     --- 
    112    54   107738.0000   754     3649.0000   107738.0000   548270     --- 
Elapsed time = 985.00 sec. (485669.99 ticks, tree = 3.86 MB, solutions = 2)
    113    43   107738.0000   878     3649.0000   107738.0000   463109     --- 
    116    57   107738.0000   766     3649.0000   107738.0000   549020     --- 
    118    59   107738.0000   795     3649.0000   107738.0000   549363     --- 
    124    61   107738.0000   735     3649.0000   107738.0000   550013     --- 
    128    63   107738.0000   754     3649.0000   107738.0000   550365     --- 
    132    65   107738.0000   726     3649.0000   107738.0000   551218     --- 
    134    66   107738.0000   727     3649.0000   107738.0000   551628     --- 
    135    85   107738.0000   945     3649.0000   107738.0000   583072     --- 
    136    86   107738.0000   924     3649.0000   107738.0000   583665     --- 
    137   103   107738.0000   935     3649.0000   107738.0000   595961     --- 
Elapsed time = 1058.44 sec. (499964.05 ticks, tree = 8.20 MB, solutions = 2)
    139    88   107738.0000   819     3649.0000   107738.0000   584779     --- 
    142    91   107738.0000   781     3649.0000   107738.0000   585351     --- 
    144    92   107738.0000   843     3649.0000   107738.0000   586088     --- 
    148    94   107738.0000   781     3649.0000   107738.0000   586486     --- 
    151   113   107738.0000   792     3649.0000   107738.0000   602423     --- 
    153   115   107738.0000   780     3649.0000   107738.0000   602928     --- 
    154   116   107738.0000   791     3649.0000   107738.0000   603774     --- 
    157   118   107738.0000   780     3649.0000   107738.0000   604279     --- 
    159   119   107738.0000   836     3649.0000   107738.0000   604849     --- 
    161   114   107738.0000   910     3649.0000   107738.0000   636159     --- 
Elapsed time = 1106.97 sec. (515045.97 ticks, tree = 11.93 MB, solutions = 2)
    164   123   107738.0000   778     3649.0000   107738.0000   605881     --- 
    169   125   107738.0000   796     3649.0000   107738.0000   606243     --- 
    176   127   107738.0000   789     3649.0000   107738.0000   606806     --- 
    182   116   107738.0000   764     3649.0000   107738.0000   613715     --- 
    187   139   107738.0000   737     3649.0000   107738.0000   642242     --- 
    192   141   107738.0000   702     3649.0000   107738.0000   643195     --- 
    196   120   107738.0000   773     3649.0000   107738.0000   615446     --- 
    200   142   107738.0000   690     3649.0000   107738.0000   644369     --- 
    202   123   107738.0000   742     3649.0000   107738.0000   616477     --- 
    205   126   107738.0000   795     3649.0000   107738.0000   641937     --- 
Elapsed time = 1135.78 sec. (528136.03 ticks, tree = 13.43 MB, solutions = 2)
    211   143   107738.0000   711     3649.0000   107738.0000   645959     --- 
    214   145   107738.0000   712     3649.0000   107738.0000   646625     --- 
    219   129   107738.0000   749     3649.0000   107738.0000   643603     --- 
    223   145    infeasible           3649.0000   107738.0000   647805     --- 
    226   145    infeasible           3649.0000   107738.0000   648299     --- 
    235   153   107738.0000   785     3649.0000   107738.0000   646544     --- 
    241   147   107738.0000   697     3649.0000   107738.0000   649174     --- 
    249   132   107738.0000   542     3649.0000   107738.0000   621739     --- 
    256   148   107738.0000   738     3649.0000   107738.0000   650462     --- 
    268   177   107738.0000   485     3649.0000   107738.0000   658585     --- 
Elapsed time = 1165.31 sec. (542433.75 ticks, tree = 17.08 MB, solutions = 2)
Starting limited solution polishing.
    290   181   107738.0000   479     3649.0000   107738.0000   661391     --- 
    317   190    infeasible           3649.0000   107738.0000   670817     --- 
    331   190    infeasible           3649.0000   107738.0000   673447     --- 

Clique cuts applied:  1
Implied bound cuts applied:  891
Flow cuts applied:  120
Mixed integer rounding cuts applied:  12

Root node processing (before b&c):
  Real time             =  440.20 sec. (257212.48 ticks)
Parallel b&c, 4 threads:
  Real time             =  760.34 sec. (301339.60 ticks)
  Sync time (average)   =  125.55 sec.
  Wait time (average)   =    0.00 sec.
                          ------------
Total (root+branch&cut) = 1200.55 sec. (558552.08 ticks)

<<< solve


OBJECTIVE: 3649

<<< post process


<<< done

